c description: Random 3-CNF over 19 variables and 81 clauses
c generator: CNFgen (0.9.2)
c copyright: (C) 2012-2022 Massimo Lauria <massimo.lauria@uniroma1.it>
c url: https://massimolauria.net/cnfgen
c command line: cnfgen --output CNF_4.28/19_bit_81_943.cnf randkcnf 3 19 81
c
p cnf 19 81
-2 4 14 0
-3 12 13 0
-1 -4 -8 0
1 15 -18 0
-4 16 19 0
1 2 11 0
1 2 -11 0
3 -8 11 0
-9 15 -17 0
1 8 -12 0
3 -9 12 0
4 10 -17 0
-7 11 -17 0
-5 10 -19 0
-8 16 -17 0
3 -5 -9 0
-3 16 -18 0
-5 6 7 0
-1 4 -8 0
1 -14 18 0
10 -11 14 0
-3 12 -17 0
4 6 9 0
-1 -2 -19 0
-11 13 18 0
-1 2 13 0
6 -11 -16 0
5 -11 -18 0
11 17 18 0
-4 -8 11 0
6 11 13 0
2 -3 -4 0
2 11 -17 0
-4 -18 19 0
1 16 17 0
9 -12 -18 0
7 -8 -16 0
6 12 -19 0
3 11 -19 0
9 -12 -14 0
3 8 15 0
1 2 18 0
-3 -4 -14 0
4 9 12 0
6 13 15 0
11 13 -19 0
15 18 -19 0
5 7 -11 0
-8 -11 -18 0
8 -10 -14 0
-2 -3 14 0
2 8 -17 0
8 -17 -18 0
-15 -17 19 0
-1 5 -11 0
-4 -13 -18 0
4 -10 14 0
-2 3 -15 0
4 -5 7 0
-3 -10 19 0
3 7 -9 0
-1 9 10 0
-6 -9 15 0
-9 -12 -16 0
4 7 9 0
3 -9 16 0
2 -7 -16 0
1 -4 -17 0
-13 -15 19 0
-6 12 15 0
-1 4 -14 0
1 -12 16 0
-6 -9 -12 0
-5 -9 12 0
6 -15 16 0
-9 -13 19 0
3 -9 -12 0
-8 12 -14 0
-2 13 17 0
1 9 16 0
1 17 -19 0
